p tw 142 153
1 2
2 55
3 14
4 5
5 6
6 7
7 8
8 9
9 10
10 11
11 12
12 13
12 22
13 15
14 25
15 16
16 17
17 18
18 19
19 20
20 21
21 22
22 23
23 24
24 26
25 36
26 128
27 28
28 29
29 30
30 31
31 32
31 3
32 33
33 34
34 35
35 37
36 47
37 38
38 39
39 40
40 41
41 42
42 43
43 3
44 45
45 46
46 48
47 50
47 53
48 49
50 51
51 52
52 53
52 56
53 54
54 48
55 66
56 57
57 58
58 59
59 60
60 61
61 62
62 63
63 64
63 67
64 65
65 48
66 77
67 68
68 69
69 70
70 71
71 72
72 73
73 74
74 75
75 76
76 78
77 88
78 79
79 80
80 81
81 82
82 83
82 117
83 84
84 85
85 86
85 117
86 87
87 89
88 99
89 90
90 91
91 92
92 93
93 94
94 95
95 96
96 97
97 98
98 100
99 110
99 3
100 101
101 102
102 103
103 104
103 113
104 105
105 106
106 107
107 108
108 109
109 111
110 121
111 112
112 113
113 114
114 115
115 116
116 79
117 118
118 119
119 120
120 122
121 132
121 36
122 123
123 124
124 125
125 126
126 127
127 128
128 129
129 130
130 131
131 133
131 27
132 44
133 134
134 135
135 136
135 27
136 137
137 138
138 139
139 140
140 141
141 142
142 4
